\* SMT到LP转换生成的线性程序 *\

Minimize
obj: 0

Subject To
c0: 283000000000 x - 245000000001 y <= 999999999
c1: - 283000000001 x + 245000000000 y <= -1
c2: - 283000000000 x + 245000000001 <= -0
c3: 283000000001 x - 245000000000 y <= 1000000000

Bounds
y free
x free

General
y
x

End
